========================================================== 
File name: C:\DEGR\assets\definitions\MSRCPSP_Gen\500_20_512_10_C.def
Creation date: Sat May 06 09:16:09 CEST 2023
Website: http://imopse.ii.pwr.edu.pl/ 
Reference: 
Myszkowski P. B., Skowronski M. E., Olech L., Oslizlo K., 
Hybrid Ant Colony Optimization in solving Multi-Skill Resource-Constrained Project Scheduling Problem, 
Soft Computing, DOI: DOI 10.1007/s00500-014-1455-x 
========================================================== 
General characteristics: 
Tasks: 500
Resources: 20
Precedence relations: 510
Number of skill types: 10
========================================================== 
ResourceID 	 Salary 	 Skills 
1	 	 	73.6	 	 Q9: 2 	  Q5: 2 	  Q0: 2 	  Q2: 1 	 
2	 	 	74.6	 	 Q1: 2 	  Q0: 3 	  Q5: 0 	  Q7: 2 	  Q9: 2 	 
3	 	 	47.9	 	 Q0: 3 	  Q5: 0 	 
4	 	 	58.8	 	 Q3: 3 	  Q4: 1 	  Q5: 3 	  Q8: 0 	  Q1: 1 	  Q0: 2 	 
5	 	 	59.1	 	 Q7: 0 	  Q3: 0 	  Q9: 2 	 
6	 	 	72.3	 	 Q6: 3 	  Q8: 2 	  Q3: 3 	  Q5: 1 	  Q4: 2 	  Q0: 1 	  Q9: 0 	  Q7: 2 	  Q1: 0 	 
7	 	 	16.5	 	 Q7: 3 	  Q6: 0 	  Q0: 3 	  Q4: 1 	  Q1: 0 	  Q9: 3 	 
8	 	 	19.5	 	 Q3: 1 	  Q7: 3 	  Q6: 1 	  Q0: 0 	  Q1: 3 	  Q8: 1 	  Q4: 3 	 
9	 	 	21.1	 	 Q0: 1 	  Q6: 3 	 
10	 	 	47.3	 	 Q8: 1 	  Q3: 0 	  Q5: 1 	  Q4: 2 	  Q0: 1 	  Q9: 1 	 
11	 	 	37.8	 	 Q0: 1 	  Q3: 3 	  Q6: 2 	 
12	 	 	91.2	 	 Q9: 2 	  Q1: 1 	  Q0: 2 	 
13	 	 	12.5	 	 Q5: 0 	 
14	 	 	82.8	 	 Q4: 2 	  Q1: 2 	  Q9: 1 	  Q8: 0 	  Q6: 3 	  Q3: 3 	  Q0: 0 	  Q7: 1 	 
15	 	 	45.9	 	 Q4: 2 	  Q1: 3 	  Q9: 1 	  Q0: 3 	  Q5: 2 	  Q7: 2 	  Q3: 2 	 
16	 	 	27.4	 	 Q6: 0 	 
17	 	 	89.1	 	 Q0: 0 	  Q1: 2 	  Q4: 0 	  Q3: 3 	  Q8: 0 	  Q7: 0 	  Q6: 1 	  Q9: 3 	  Q5: 2 	 
18	 	 	46.5	 	 Q5: 1 	  Q3: 3 	  Q4: 0 	  Q6: 2 	  Q7: 2 	  Q0: 3 	  Q1: 3 	  Q9: 2 	 
19	 	 	90.5	 	 Q0: 2 	  Q2: 0 	  Q3: 0 	  Q6: 0 	  Q7: 0 	  Q9: 3 	  Q1: 1 	  Q5: 3 	  Q4: 3 	 
20	 	 	33.7	 	 Q4: 3 	 
========================================================== 
TaskID 	 Duration 	 Skill 	 Predecessor IDs 
1	31	Q5:	1
2	40	Q3:	0
3	15	Q6:	0
4	27	Q1:	1
5	12	Q0:	0
6	32	Q1:	3
7	39	Q1:	3
8	30	Q9:	3
9	23	Q9:	3
10	17	Q9:	3
11	29	Q5:	1
12	40	Q5:	1
13	24	Q3:	1
14	38	Q5:	3
15	30	Q0:	3
16	35	Q4:	2
17	33	Q3:	2	14
18	14	Q6:	3
19	32	Q3:	2
20	31	Q2:	1
21	14	Q1:	1
22	24	Q0:	0
23	36	Q4:	3
24	28	Q0:	0
25	37	Q7:	3
26	17	Q1:	1
27	10	Q5:	0
28	36	Q3:	0
29	29	Q8:	0
30	36	Q2:	0
31	40	Q4:	3
32	28	Q5:	2
33	39	Q8:	1
34	29	Q6:	2
35	27	Q0:	3
36	9	Q1:	0
37	33	Q0:	1	20
38	36	Q3:	3
39	36	Q1:	3
40	37	Q5:	0
41	22	Q7:	0
42	14	Q8:	1	28
43	23	Q5:	0
44	40	Q7:	3
45	33	Q9:	3
46	9	Q7:	2
47	23	Q6:	0
48	11	Q5:	2
49	18	Q4:	1
50	39	Q1:	2
51	25	Q0:	0
52	16	Q2:	1
53	16	Q9:	2
54	21	Q4:	2
55	24	Q5:	0
56	25	Q6:	1
57	31	Q8:	2
58	39	Q4:	3
59	37	Q8:	1
60	26	Q8:	0	29
61	25	Q7:	0
62	40	Q6:	0
63	25	Q4:	2
64	14	Q4:	3
65	24	Q3:	0
66	30	Q9:	2
67	21	Q6:	1
68	12	Q9:	3
69	32	Q3:	0
70	27	Q3:	3
71	22	Q5:	3	62
72	17	Q6:	0
73	23	Q8:	0
74	9	Q0:	0	4	29	40
75	29	Q3:	2
76	36	Q0:	2	58
77	33	Q3:	1
78	35	Q9:	3	17
79	37	Q4:	2
80	37	Q1:	0
81	28	Q9:	0
82	33	Q7:	3
83	18	Q9:	2	71
84	21	Q6:	0
85	12	Q9:	0
86	22	Q9:	3
87	30	Q3:	1
88	37	Q3:	3
89	27	Q9:	0	60
90	25	Q8:	1
91	13	Q0:	1
92	13	Q9:	1
93	26	Q0:	0
94	31	Q8:	0
95	36	Q5:	2
96	37	Q9:	2
97	11	Q1:	3	47
98	30	Q4:	2
99	29	Q4:	3	13	10
100	22	Q6:	1	79
101	30	Q4:	1	77
102	25	Q0:	1
103	13	Q0:	3
104	23	Q5:	2	50	91
105	29	Q6:	2	50	76
106	36	Q3:	0
107	40	Q6:	2
108	33	Q3:	0
109	39	Q3:	2	9
110	37	Q7:	0
111	39	Q8:	1
112	15	Q6:	1	17
113	29	Q3:	1
114	27	Q7:	3
115	29	Q6:	2	76
116	25	Q5:	2	98
117	9	Q6:	0	4
118	17	Q2:	0	69
119	36	Q5:	3	78
120	34	Q5:	1	66	12
121	16	Q3:	0	68	103
122	33	Q5:	0	5
123	34	Q6:	1
124	27	Q1:	1	106
125	15	Q3:	3	117
126	26	Q0:	0
127	35	Q4:	1
128	19	Q3:	0
129	13	Q6:	1	103
130	18	Q8:	1	94
131	29	Q3:	2	6
132	31	Q9:	3	10
133	21	Q8:	2
134	25	Q5:	1
135	38	Q1:	2
136	36	Q6:	3
137	39	Q6:	2
138	9	Q0:	2	128
139	13	Q3:	2	7	63
140	11	Q9:	3	24
141	35	Q5:	1	49
142	35	Q5:	2	3
143	31	Q9:	2
144	28	Q5:	2	65
145	23	Q9:	3	67	116
146	33	Q0:	1	65
147	20	Q1:	2	71	56
148	30	Q5:	0	11
149	23	Q0:	3	97
150	32	Q6:	0
151	27	Q9:	0	88
152	12	Q1:	2
153	26	Q3:	0
154	9	Q8:	1	82
155	18	Q6:	3
156	31	Q1:	0
157	12	Q4:	2	89
158	38	Q3:	3
159	28	Q5:	1	19	111
160	38	Q0:	3
161	24	Q9:	0	55	90
162	29	Q3:	2
163	16	Q5:	1
164	27	Q3:	1	43
165	16	Q8:	0	151
166	15	Q9:	1	108
167	22	Q4:	3
168	13	Q7:	1
169	10	Q4:	2	120
170	10	Q6:	0
171	9	Q8:	0
172	27	Q7:	2	131	118	38
173	18	Q4:	2
174	21	Q1:	0	173
175	29	Q1:	0	39	25
176	25	Q8:	0	41	18
177	39	Q9:	2
178	34	Q1:	1
179	11	Q3:	0
180	23	Q9:	2
181	31	Q3:	3
182	32	Q7:	2	123
183	30	Q3:	1
184	40	Q5:	1	63	1
185	30	Q7:	2
186	15	Q9:	0	6
187	11	Q5:	3
188	33	Q3:	0	112
189	24	Q2:	1
190	20	Q0:	0	60
191	37	Q7:	1	133
192	16	Q8:	0	81	30
193	22	Q6:	1	98
194	38	Q7:	3
195	12	Q7:	2	187
196	21	Q2:	1
197	26	Q7:	1
198	37	Q3:	2	79
199	23	Q9:	1	15
200	37	Q6:	2
201	19	Q7:	0	65	34	105	36
202	12	Q1:	0	153
203	14	Q4:	2	3	167
204	36	Q1:	1
205	13	Q6:	0	62	44
206	10	Q0:	2
207	16	Q9:	0
208	13	Q7:	3	24
209	14	Q0:	1
210	36	Q4:	3	117	44
211	29	Q6:	1
212	12	Q1:	0	121
213	23	Q2:	0
214	13	Q2:	1	90
215	11	Q8:	1	175
216	31	Q3:	2	117	169
217	12	Q4:	3	14
218	15	Q7:	3
219	13	Q8:	2
220	39	Q1:	0	22
221	10	Q5:	0	2
222	16	Q1:	2	126
223	35	Q7:	3
224	14	Q5:	2
225	12	Q9:	0
226	18	Q7:	3	153
227	29	Q1:	3	223
228	25	Q5:	2
229	28	Q7:	2
230	37	Q2:	0
231	30	Q1:	2
232	27	Q7:	3	224
233	20	Q2:	0	126
234	14	Q3:	0	108	211	106
235	32	Q6:	3	20
236	13	Q5:	1	156	103
237	13	Q3:	1	223	57
238	34	Q5:	3	198	227	197
239	30	Q6:	3
240	17	Q1:	2	73
241	30	Q2:	1	195
242	40	Q2:	1	50	29
243	37	Q0:	2	177	199
244	31	Q7:	1	89	93
245	34	Q4:	3	29	104	151
246	17	Q4:	3	63
247	26	Q4:	1	173
248	30	Q7:	3
249	21	Q0:	3	35
250	23	Q4:	0	6	116
251	36	Q7:	1	2	68
252	17	Q5:	0
253	37	Q0:	3	60	207
254	27	Q0:	0	158
255	31	Q1:	1	60
256	33	Q6:	3	81
257	38	Q1:	1
258	15	Q8:	0	170	211
259	34	Q1:	0	177
260	30	Q2:	1	142
261	30	Q8:	2
262	36	Q9:	1	177
263	31	Q4:	2	189
264	33	Q9:	2	230	257
265	22	Q8:	0
266	9	Q4:	1
267	15	Q6:	1	117	140
268	15	Q5:	3
269	12	Q0:	1
270	9	Q6:	3
271	37	Q7:	0	133	153
272	37	Q8:	1
273	16	Q2:	0	211	55	5
274	15	Q4:	1	166	129
275	38	Q4:	2
276	31	Q1:	0	242	87	78
277	24	Q3:	2	19
278	19	Q3:	2	256
279	32	Q9:	0	204	107	35
280	39	Q0:	3	122
281	29	Q6:	0	116
282	30	Q7:	2
283	16	Q7:	1
284	26	Q0:	0
285	35	Q4:	3	147
286	15	Q8:	0	253
287	13	Q2:	1	130	113
288	38	Q3:	0	203
289	23	Q3:	1	35
290	25	Q0:	1	18	270	13
291	17	Q8:	1	155	115
292	26	Q5:	1
293	18	Q9:	3	19	103
294	26	Q6:	1
295	14	Q0:	1	130
296	24	Q9:	0	238
297	25	Q1:	0	112	50	134
298	40	Q3:	2	8	296
299	36	Q5:	1
300	29	Q6:	3	117	215	190
301	16	Q5:	0	100
302	34	Q4:	0	81
303	37	Q6:	1	46
304	15	Q1:	0	114
305	31	Q4:	1	17	283
306	15	Q6:	3	152
307	14	Q0:	3	9	170
308	36	Q0:	3	147
309	18	Q7:	1	243
310	15	Q3:	2	140
311	27	Q5:	0	277	75
312	26	Q4:	0	189
313	27	Q6:	3
314	13	Q1:	0	276	4
315	15	Q9:	1	92	70
316	40	Q0:	3	61	248
317	37	Q1:	0
318	12	Q3:	2	106	175
319	30	Q3:	0
320	32	Q6:	2	130
321	22	Q2:	0	146	4	36	73
322	20	Q3:	1	20
323	38	Q3:	1	202	152	255
324	36	Q9:	1	313	320
325	38	Q0:	1
326	28	Q8:	2	50	136
327	16	Q3:	1	139	87	81
328	9	Q7:	3	69
329	16	Q1:	0	312	38
330	18	Q2:	0	135	175	302
331	14	Q2:	1	257	42
332	18	Q5:	0	158	183
333	36	Q7:	2	139
334	21	Q7:	1
335	18	Q4:	2	314	130	316
336	38	Q1:	0	28
337	17	Q3:	0	240	36
338	11	Q7:	1
339	13	Q4:	3	278
340	12	Q3:	3	282	61
341	36	Q1:	3	270	127	250
342	31	Q9:	0	174
343	40	Q7:	1
344	23	Q9:	0	248
345	38	Q6:	3	284	324	187	64
346	36	Q5:	3	104	91
347	16	Q1:	2	68
348	27	Q3:	0
349	12	Q4:	0	131	39	139
350	10	Q3:	0	334	87	191	223
351	14	Q4:	1
352	31	Q6:	3	222	172
353	11	Q8:	0
354	9	Q0:	3
355	28	Q3:	3	10
356	21	Q8:	2	334
357	33	Q4:	2	97
358	36	Q8:	1	7
359	20	Q6:	1	8	302
360	36	Q5:	2	329	240
361	22	Q8:	1	13
362	22	Q0:	3
363	29	Q7:	0	219
364	10	Q6:	0	207
365	15	Q9:	0	266	324	284
366	10	Q3:	3	249
367	10	Q6:	3	246
368	34	Q6:	2	194
369	36	Q8:	0	18
370	17	Q3:	1
371	14	Q9:	3
372	39	Q7:	0	220	233
373	21	Q3:	3	163	288	89
374	27	Q3:	3	182	151
375	25	Q5:	3	298
376	31	Q3:	3	22
377	29	Q4:	0	68
378	18	Q4:	0	90	353	120	93
379	17	Q9:	0	223	217
380	10	Q3:	2	161	168
381	27	Q1:	1	305	282
382	22	Q0:	0	157	54	33
383	38	Q0:	3	331
384	23	Q3:	1
385	30	Q8:	2
386	39	Q0:	0	346	194
387	38	Q3:	2
388	25	Q2:	1	190	341	349
389	34	Q0:	2	130	293
390	34	Q1:	2	165	318	321
391	18	Q0:	3	149	328	253
392	35	Q8:	1	49
393	24	Q5:	3	181	330
394	39	Q7:	1	88
395	30	Q3:	2
396	32	Q7:	1	359
397	29	Q5:	0	192
398	37	Q0:	1	187
399	25	Q9:	2	57	151	123
400	18	Q5:	2
401	32	Q8:	2
402	38	Q7:	2	331
403	23	Q9:	2	368	255	177
404	39	Q7:	3	56	316
405	15	Q5:	2
406	21	Q3:	2
407	27	Q1:	1	114
408	25	Q3:	2
409	38	Q6:	3
410	11	Q0:	1	266
411	35	Q0:	0
412	38	Q3:	2	166
413	26	Q0:	3	145	174	41
414	23	Q1:	2	146	26	114	260
415	32	Q5:	3	28
416	28	Q7:	3	106	131	312
417	18	Q0:	3	205	3
418	19	Q3:	1	151	34	161	159
419	24	Q6:	2	367	381
420	31	Q6:	2	185	55
421	13	Q8:	2	330	162	80
422	13	Q0:	3	282	104	361
423	16	Q4:	1	342	79
424	26	Q1:	2	167
425	24	Q5:	3	355	206
426	21	Q9:	0	304	79
427	40	Q7:	1	404
428	24	Q9:	3	294
429	13	Q6:	3	177
430	16	Q9:	2	49
431	33	Q2:	1	150	352
432	31	Q0:	1	153	394
433	27	Q5:	3
434	21	Q3:	3	99
435	22	Q0:	0	116	365	335
436	28	Q2:	0
437	37	Q0:	0	153
438	9	Q0:	2	43	274	115	163	139
439	32	Q9:	0	284
440	12	Q6:	3	68
441	39	Q8:	0
442	14	Q0:	3	48
443	20	Q9:	2
444	40	Q0:	2	396	297
445	14	Q4:	0	209	145
446	22	Q4:	3	109
447	17	Q7:	2	165
448	37	Q3:	0	394	195	420
449	37	Q6:	1	429	27
450	29	Q7:	3	14
451	22	Q9:	2	283
452	30	Q0:	0	145
453	28	Q8:	0
454	34	Q8:	0	181
455	17	Q2:	0	60
456	14	Q6:	0	49	52	218
457	14	Q1:	0	336
458	24	Q4:	1	367
459	39	Q3:	1	308	321	178
460	9	Q5:	2	107
461	30	Q5:	3	181	248	108	207
462	12	Q9:	3	48	418	366
463	10	Q6:	3	348	40	288
464	20	Q4:	3
465	24	Q4:	0	126	130
466	40	Q1:	2	220	222
467	19	Q1:	0	25	301
468	18	Q3:	0
469	16	Q0:	0	259	359
470	40	Q1:	3	188	225
471	20	Q0:	2
472	20	Q3:	1
473	19	Q8:	2	301
474	15	Q9:	0	167	154	29	10	416
475	38	Q5:	0	409	402	113	352
476	30	Q6:	3	438	64	330	136
477	14	Q2:	1	333	18
478	22	Q6:	0	182	241
479	35	Q7:	3
480	28	Q5:	0	146	128	172	185
481	28	Q3:	2	153	480
482	28	Q2:	0	50	449	332	453	77
483	9	Q9:	1	1	39
484	20	Q7:	3	365	20
485	28	Q9:	2	178	421
486	12	Q3:	2
487	15	Q7:	3	18	112	76
488	20	Q5:	2	180
489	18	Q6:	1	277
490	29	Q8:	2	340	361	12
491	24	Q7:	2	413
492	27	Q1:	0	100	210
493	20	Q1:	2	205	412
494	36	Q6:	0	393	420	415
495	30	Q0:	1	238	108	39
496	11	Q5:	2	469	123	158	37
497	24	Q5:	3	1	100
498	11	Q7:	0	254
499	38	Q4:	0
500	29	Q1:	3	297
========================================================== 